c CNF file corresponding to a (partial) station packing problem.
p cnf 2404 229
1 2 3 4 5 6 7 8 9 10 11 12 13 14 0
-1 -2 0
-1 -3 0
-1 -4 0
-1 -5 0
-1 -6 0
-1 -7 0
-1 -8 0
-1 -9 0
-1 -10 0
-1 -11 0
-1 -12 0
-1 -13 0
-1 -14 0
-2 -3 0
-2 -4 0
-2 -5 0
-2 -6 0
-2 -7 0
-2 -8 0
-2 -9 0
-2 -10 0
-2 -11 0
-2 -12 0
-2 -13 0
-2 -14 0
-3 -4 0
-3 -5 0
-3 -6 0
-3 -7 0
-3 -8 0
-3 -9 0
-3 -10 0
-3 -11 0
-3 -12 0
-3 -13 0
-3 -14 0
-4 -5 0
-4 -6 0
-4 -7 0
-4 -8 0
-4 -9 0
-4 -10 0
-4 -11 0
-4 -12 0
-4 -13 0
-4 -14 0
-5 -6 0
-5 -7 0
-5 -8 0
-5 -9 0
-5 -10 0
-5 -11 0
-5 -12 0
-5 -13 0
-5 -14 0
-6 -7 0
-6 -8 0
-6 -9 0
-6 -10 0
-6 -11 0
-6 -12 0
-6 -13 0
-6 -14 0
-7 -8 0
-7 -9 0
-7 -10 0
-7 -11 0
-7 -12 0
-7 -13 0
-7 -14 0
-8 -9 0
-8 -10 0
-8 -11 0
-8 -12 0
-8 -13 0
-8 -14 0
-9 -10 0
-9 -11 0
-9 -12 0
-9 -13 0
-9 -14 0
-10 -11 0
-10 -12 0
-10 -13 0
-10 -14 0
-11 -12 0
-11 -13 0
-11 -14 0
-12 -13 0
-12 -14 0
-13 -14 0
2388 2389 2390 2391 2392 2393 2394 2395 2396 2397 2398 2399 2400 2401 2402 2403 2404 0
-2388 -2389 0
-2388 -2390 0
-2388 -2391 0
-2388 -2392 0
-2388 -2393 0
-2388 -2394 0
-2388 -2395 0
-2388 -2396 0
-2388 -2397 0
-2388 -2398 0
-2388 -2399 0
-2388 -2400 0
-2388 -2401 0
-2388 -2402 0
-2388 -2403 0
-2388 -2404 0
-2389 -2390 0
-2389 -2391 0
-2389 -2392 0
-2389 -2393 0
-2389 -2394 0
-2389 -2395 0
-2389 -2396 0
-2389 -2397 0
-2389 -2398 0
-2389 -2399 0
-2389 -2400 0
-2389 -2401 0
-2389 -2402 0
-2389 -2403 0
-2389 -2404 0
-2390 -2391 0
-2390 -2392 0
-2390 -2393 0
-2390 -2394 0
-2390 -2395 0
-2390 -2396 0
-2390 -2397 0
-2390 -2398 0
-2390 -2399 0
-2390 -2400 0
-2390 -2401 0
-2390 -2402 0
-2390 -2403 0
-2390 -2404 0
-2391 -2392 0
-2391 -2393 0
-2391 -2394 0
-2391 -2395 0
-2391 -2396 0
-2391 -2397 0
-2391 -2398 0
-2391 -2399 0
-2391 -2400 0
-2391 -2401 0
-2391 -2402 0
-2391 -2403 0
-2391 -2404 0
-2392 -2393 0
-2392 -2394 0
-2392 -2395 0
-2392 -2396 0
-2392 -2397 0
-2392 -2398 0
-2392 -2399 0
-2392 -2400 0
-2392 -2401 0
-2392 -2402 0
-2392 -2403 0
-2392 -2404 0
-2393 -2394 0
-2393 -2395 0
-2393 -2396 0
-2393 -2397 0
-2393 -2398 0
-2393 -2399 0
-2393 -2400 0
-2393 -2401 0
-2393 -2402 0
-2393 -2403 0
-2393 -2404 0
-2394 -2395 0
-2394 -2396 0
-2394 -2397 0
-2394 -2398 0
-2394 -2399 0
-2394 -2400 0
-2394 -2401 0
-2394 -2402 0
-2394 -2403 0
-2394 -2404 0
-2395 -2396 0
-2395 -2397 0
-2395 -2398 0
-2395 -2399 0
-2395 -2400 0
-2395 -2401 0
-2395 -2402 0
-2395 -2403 0
-2395 -2404 0
-2396 -2397 0
-2396 -2398 0
-2396 -2399 0
-2396 -2400 0
-2396 -2401 0
-2396 -2402 0
-2396 -2403 0
-2396 -2404 0
-2397 -2398 0
-2397 -2399 0
-2397 -2400 0
-2397 -2401 0
-2397 -2402 0
-2397 -2403 0
-2397 -2404 0
-2398 -2399 0
-2398 -2400 0
-2398 -2401 0
-2398 -2402 0
-2398 -2403 0
-2398 -2404 0
-2399 -2400 0
-2399 -2401 0
-2399 -2402 0
-2399 -2403 0
-2399 -2404 0
-2400 -2401 0
-2400 -2402 0
-2400 -2403 0
-2400 -2404 0
-2401 -2402 0
-2401 -2403 0
-2401 -2404 0
-2402 -2403 0
-2402 -2404 0
-2403 -2404 0
